[runlim] version:		1.10
[runlim] time limit:		1800 seconds
[runlim] real time limit:	1800 seconds
[runlim] space limit:		30000 MB
[runlim] argv[0]:		python
[runlim] argv[1]:		FE.py
[runlim] argv[2]:		D-bcsstk01.mtx.rnd
[runlim] start:			Thu Oct  3 13:57:55 2024
[runlim] main pid:		411579
[runlim] log captured:
9
8
Version identifier: 20.1.0.0 | 2020-11-10 | 9bedb6d68
CPXPARAM_Simplex_PGradient                       4
CPXPARAM_Read_DataCheck                          1
CPXPARAM_MIP_Strategy_File                       3
CPXPARAM_TimeLimit                               1800
CPXPARAM_WorkMem                                 122880
Tried aggregator 1 time.
MIP Presolve eliminated 5185 rows and 24 columns.
MIP Presolve modified 1481 coefficients.
Reduced MIP has 2151 rows, 2280 columns, and 60733 nonzeros.
Reduced MIP has 2280 binaries, 0 generals, 0 SOSs, and 0 indicators.
Presolve time = 0.42 sec. (267.26 ticks)
Probing time = 0.02 sec. (2.93 ticks)
Tried aggregator 1 time.
Detecting symmetries...
Reduced MIP has 2151 rows, 2280 columns, and 60733 nonzeros.
Reduced MIP has 2280 binaries, 0 generals, 0 SOSs, and 0 indicators.
Presolve time = 0.09 sec. (48.39 ticks)
Probing time = 0.02 sec. (2.93 ticks)
Clique table members: 2151.
MIP emphasis: balance optimality and feasibility.
MIP search method: dynamic search.
Parallel mode: deterministic, using up to 8 threads.
Root relaxation solution time = 1.02 sec. (454.17 ticks)

        Nodes                                         Cuts/
   Node  Left     Objective  IInf  Best Integer    Best Bound    ItCnt     Gap

      0     0        0.0000   273                      0.0000        6         
[runlim] sample:		49.6 time, 10.6 real, 151.0 MB
*     0+    0                            0.0000        0.0000             0.00%
      0     0        cutoff              0.0000        0.0000       42    0.00%
Elapsed time = 14.21 sec. (9055.24 ticks, tree = 0.01 MB, solutions = 1)

Clique cuts applied:  2

Root node processing (before b&c):
  Real time             =   14.21 sec. (9055.31 ticks)
Parallel b&c, 8 threads:
  Real time             =    0.00 sec. (0.00 ticks)
  Sync time (average)   =    0.00 sec.
  Wait time (average)   =    0.00 sec.
                          ------------
Total (root+branch&cut) =   14.21 sec. (9055.31 ticks)
Trạng thái giải pháp: integer optimal solution
Giá trị Antibandwidth: 8
Giá trị Antibandwidth: 8
Các nhãn: [23, 33, 42, 17, 34, 43, 20, 11, 9, 26, 36, 35, 37, 2, 44, 7, 32, 25, 22, 46, 3, 15, 13, 40, 19, 10, 16, 6, 18, 31, 45, 4, 41, 29, 48, 5, 39, 21, 38, 12, 27, 1, 30, 8, 24, 47, 28, 14]
Bài toán Antibandwidth
Version identifier: 20.1.0.0 | 2020-11-10 | 9bedb6d68
CPXPARAM_Simplex_PGradient                       4
CPXPARAM_Read_DataCheck                          1
CPXPARAM_MIP_Strategy_File                       3
CPXPARAM_TimeLimit                               1800
CPXPARAM_WorkMem                                 122880
Tried aggregator 1 time.
MIP Presolve eliminated 5045 rows and 24 columns.
MIP Presolve modified 1459 coefficients.
Reduced MIP has 2115 rows, 2280 columns, and 66498 nonzeros.
Reduced MIP has 2280 binaries, 0 generals, 0 SOSs, and 0 indicators.
Presolve time = 0.36 sec. (332.51 ticks)
Probing time = 0.01 sec. (2.94 ticks)
Tried aggregator 1 time.
Detecting symmetries...
Reduced MIP has 2115 rows, 2280 columns, and 66498 nonzeros.
Reduced MIP has 2280 binaries, 0 generals, 0 SOSs, and 0 indicators.
Presolve time = 0.06 sec. (54.34 ticks)
Probing time = 0.01 sec. (2.94 ticks)
Clique table members: 2115.
MIP emphasis: balance optimality and feasibility.
MIP search method: dynamic search.
Parallel mode: deterministic, using up to 8 threads.
Root relaxation solution time = 0.74 sec. (492.04 ticks)

        Nodes                                         Cuts/
   Node  Left     Objective  IInf  Best Integer    Best Bound    ItCnt     Gap

      0     0        0.0000   291                      0.0000        8         
[runlim] sample:		92.6 time, 20.6 real, 146.0 MB
*     0+    0                            0.0000        0.0000             0.00%
      0     0        cutoff              0.0000        0.0000     8090    0.00%
Elapsed time = 10.73 sec. (11028.22 ticks, tree = 0.01 MB, solutions = 1)

Clique cuts applied:  38
Zero-half cuts applied:  4

Root node processing (before b&c):
  Real time             =   10.73 sec. (11028.29 ticks)
Parallel b&c, 8 threads:
  Real time             =    0.00 sec. (0.00 ticks)
  Sync time (average)   =    0.00 sec.
  Wait time (average)   =    0.00 sec.
                          ------------
Total (root+branch&cut) =   10.73 sec. (11028.29 ticks)
Trạng thái giải pháp: integer optimal solution
Giá trị Antibandwidth: 9
Giá trị Antibandwidth: 9
Các nhãn: [44, 42, 18, 4, 16, 25, 47, 28, 33, 39, 43, 20, 21, 12, 9, 31, 45, 32, 35, 1, 37, 3, 7, 8, 46, 48, 6, 27, 2, 24, 30, 34, 15, 38, 41, 14, 13, 5, 10, 23, 40, 11, 36, 29, 26, 17, 19, 22]
Bài toán Antibandwidth
[runlim] end:			Thu Oct  3 13:58:21 2024
[runlim] status:		ok
[runlim] result:		0
[runlim] children:		0
[runlim] real:			26.10 seconds
[runlim] time:			127.51 seconds
[runlim] space:			153.8 MB
[runlim] samples:		255
